Translating instance to solver...

GLPSOL--GLPK LP/MIP Solver 5.0
Parameter(s) specified in the command line:
 --tmlim 28800 --mipgap 0.0 --write /tmp/tmpplenz_j7.glpk.raw --wglp /tmp/tmpqbbqoy0y.glpk.glp
 --cpxlp /tmp/tmpykdcvei1.pyomo.lp
Reading problem data from '/tmp/tmpykdcvei1.pyomo.lp'...
/tmp/tmpykdcvei1.pyomo.lp:375577: warning: lower bound of variable 'x2' redefined
/tmp/tmpykdcvei1.pyomo.lp:375577: warning: upper bound of variable 'x2' redefined
62376 rows, 37442 columns, 150859 non-zeros
37442 integer variables, 37395 of which are binary
412972 lines were read
Writing problem data to '/tmp/tmpqbbqoy0y.glpk.glp'...
285897 lines were written
GLPK Integer Optimizer 5.0
62376 rows, 37442 columns, 150859 non-zeros
37442 integer variables, 37395 of which are binary
Preprocessing...
311 hidden packing inequaliti(es) were detected
8231 hidden covering inequaliti(es) were detected
215 constraint coefficient(s) were reduced
30003 rows, 12303 columns, 75026 non-zeros
12303 integer variables, 12257 of which are binary
Scaling...
 A: min|aij| =  1.000e+00  max|aij| =  4.600e+01  ratio =  4.600e+01
GM: min|aij| =  5.517e-01  max|aij| =  1.813e+00  ratio =  3.285e+00
EQ: min|aij| =  3.113e-01  max|aij| =  1.000e+00  ratio =  3.212e+00
2N: min|aij| =  2.500e-01  max|aij| =  1.438e+00  ratio =  5.750e+00
Constructing initial basis...
Size of triangular part is 30003
Solving LP relaxation...
GLPK Simplex Optimizer 5.0
30003 rows, 12303 columns, 75026 non-zeros
      0: obj =   0.000000000e+00 inf =   1.249e+02 (226)
Perturbing LP to avoid stalling [220]...
   1173: obj =   7.358109395e+00 inf =   1.138e-07 (0) 6
Removing LP perturbation [2697]...
*  2697: obj =   9.176730000e-01 inf =   0.000e+00 (0) 8
OPTIMAL LP SOLUTION FOUND
Integer optimization begins...
Long-step dual simplex will be used
+  2697: mip =     not found yet >=              -inf        (1; 0)
+  5939: mip =     not found yet >=   9.176730000e-01        (46; 24)
+  8627: mip =     not found yet >=   9.176730000e-01        (105; 31)
+ 11324: mip =     not found yet >=   9.176730000e-01        (168; 86)
+ 13502: mip =     not found yet >=   9.176730000e-01        (222; 93)
+ 16007: mip =     not found yet >=   9.176730000e-01        (260; 100)
+ 16472: >>>>>   9.176730000e-01 >=   9.176730000e-01 < 0.1% (272; 101)
+ 16472: mip =   9.176730000e-01 >=     tree is empty   0.0% (0; 691)
INTEGER OPTIMAL SOLUTION FOUND
Time used:   27.8 secs
Memory used: 62.6 Mb (65594929 bytes)
Writing MIP solution to '/tmp/tmpplenz_j7.glpk.raw'...
99827 lines were written

Time in solver (for this epsilon): 28.06786012649536 s
Elapsed time (for this epsilon): 29.80203366279602 s


Total elapsed time since execution of first epsilon: 285112.22707629204 s

Results:

E = 0.9176730000000001 mA
C = 18.0 points
C ~= 7.2 km^2

Minimum Epsilon for this instance = 14
Maximum Epsilon for this instance = 221

Current Epsilon = 14


Instance Epsilon Preprocessing Time: 0.010657310485839844 s


Updated solution vectors:
sol_E = [-0.9176730000000001]
sol_C = [18.0]
sol_eps = [14]
sol_gap = [0.0]
